# Solution for model obj
# Objective value = 17
x#1 0
x#2 0
x#3 1
x#4 1
x#5 0
x#6 1
x#7 0
x#8 0
x#9 0
x#10 1
x#11 1
x#12 1
x#13 1
x#14 0
x#15 0
x#16 0
x#17 0
x#18 0
x#19 0
x#20 1
x#21 1
x#22 0
x#23 1
x#24 1
x#25 1
x#26 0
x#27 1
x#28 1
x#29 1
x#30 0
x#31 1
x#32 0
x#33 0
x#34 1
x#35 0
x#36 0
x#37 0
x#38 0
x#39 0
